0 17 18
1 21 23
2 23 24
3 21 23
4 12 23
5 6 23
6 20 22
7 20 20
8 12 19
9 12 18
10 13 16
11 7 15
12 12 13
13 10 11
14 8 10
15 7 9
16 8 8
17 4 4
18 5 5
19 5 5
20 5 5
21 2 3
22 2 2
23 2 2
24 1 3
25 1 2

